NAME : ch130.2828.tour
COMMENT : Length = 2828
COMMENT : Found by LKH [Keld Helsgaun] Wed May 29 17:05:40 2013
TYPE : TOUR
DIMENSION : 26
TOUR_SECTION
105
16
61
64
26
63
43
19
24
29
77
119
101
56
73
72
120
6
122
47
46
18
126
121
90
115
-1
EOF
